============================[ Problem Statistics ]=============================|                                                                             ||  Number of variables:          4242                                         ||  Number of clauses:           10141                                         ||  Parse time:                   0.53 s                                       ||                                                                             |============================[ Search Statistics ]==============================| Conflicts |          ORIGINAL         |          LEARNT          | Progress ||           |    Vars  Clauses Literals |    Limit  Clauses Lit/Cl |          |===============================================================================|       100 |    1591     6346   843887 |     2326      100     53 | 62.501 % ||       250 |    1591     6346   843887 |     2559      250     75 | 62.495 % |===============================================================================restarts              : 3conflicts             : 295            (369 /sec)decisions             : 559            (0.00 % random) (699 /sec)propagations          : 11841          (14801 /sec)conflict literals     : 23181          (94.75 % deleted)CPU time              : 0.8 sSATISFIABLE